33D32945 STP File, STP Format Version 1.0

SECTION Comments
Name "estein10_2"
Problem "Euclidean Steiner Tree Problem"
Remark "Generated with STPGenerator. 2 dimensions."
END

SECTION Graph
Nodes 10
END

SECTION Coordinates
DD 1 0.1470158 0.6131368
DD 2 0.1251936 0.2125058
DD 3 0.7411042 0.203611
DD 4 0.8044316 0.4252316
DD 5 0.2116787 0.2721307
DD 6 0.6624317 0.7419167
DD 7 0.804396 0.5698598
DD 8 0.6684968 0.2824909
DD 9 0.4043257 0.189591
DD 10 0.4978816 0.2117592
END

